%nproc=16
%Chk=tests/amber_10AA/amber_run/sp_or_opt_gaussian_temp_mol.chk
%RWF=tests/amber_10AA/amber_run/
%Int=tests/amber_10AA/amber_run/
%D2E=tests/amber_10AA/amber_run/
#T b3lyp/6-31G* opt geom=nocrowd iop(1/7=10000) 

geometry optimization on in_temp_mol "opt=(maxcycles=2)"

0 1
