%nproc=16
%Chk=tests/amber_10AA/amber_run/sp_or_opt_gaussian_temp_mol.chk
%RWF=tests/amber_10AA/amber_run/
%Int=tests/amber_10AA/amber_run/
%D2E=tests/amber_10AA/amber_run/
#P HF/6-31G* Geom=nocrowd Pop=MK IOp(6/33=2, 6/42=17)

HF single point computation on opt_gaussian_temp_mol

0 1
