%nproc=12
%Chk=tests/amber_gpgg/amber_run/opt_gaussian_temp_mol.chk
%RWF=tests/amber_gpgg/amber_run/
#T b3lyp/6-31G* opt iop(1/7=10000) 

geometry optimization on in_temp_mol "opt=(maxcycles=2)"

-1 1
H          -5.10454        -6.16624        -6.92791
O          -5.94351        -5.70980        -6.73826
C          -5.98591        -5.41198        -5.43913
C          -7.32206        -4.76265        -5.09315
O          -5.08142        -5.66368        -4.66459
N          -7.33669        -4.05265        -3.83232
H          -7.60553        -4.08692        -5.90195
H          -8.06103        -5.57132        -5.06485
C          -7.06609        -2.72427        -3.76415
H          -7.51394        -4.57493        -2.98561
C          -6.94375        -2.13634        -2.34156
O          -6.89953        -2.03382        -4.76541
N          -6.04541        -0.99949        -2.33880
H          -7.92258        -1.82247        -1.97167
H          -6.55289        -2.90170        -1.66540
C          -5.16687        -0.85410        -1.31815
H          -6.34027        -0.17294        -2.83969
C          -4.49219         0.52084        -1.20660
O          -4.92237        -1.78234        -0.53937
H          -5.22801         1.25012        -0.84005
N          -3.34999         0.65832        -0.29316
C          -3.91663         0.98073        -2.57569
C          -2.07920         0.23937        -0.50291
C          -2.16363         1.24257        -0.95764
H          -4.68114         1.45251        -3.19626
H          -3.52910         0.11188        -3.11747
C          -2.76375         1.91873        -2.19079
C          -1.78292        -0.77384        -1.61998
O          -1.11567         0.64258         0.14400
H          -2.47817         2.04408        -1.62814
H          -1.49389         1.67443        -0.20581
H          -3.52326         2.64987        -1.89303
H          -2.01177         2.43915        -2.78828
N          -0.88159        -0.04342        -2.57313
H          -2.62092        -1.16324        -2.19455
H          -1.22175        -1.60263        -1.18458
H          -1.43682         0.75802        -2.93000
H          -0.07540         0.31435        -2.05023
H          -0.58680        -0.60054        -3.39433

